c "452366.clq"
p edge 200 784
e 1 5
e 1 8
e 1 10
e 1 13
e 1 49
e 1 50
e 1 81
e 1 86
e 1 118
e 1 119
e 1 171
e 1 172
e 2 5
e 2 6
e 2 7
e 2 8
e 2 9
e 2 10
e 2 12
e 2 13
e 2 15
e 2 16
e 2 18
e 2 19
e 2 26
e 2 28
e 2 31
e 2 35
e 2 39
e 2 41
e 2 67
e 2 71
e 2 85
e 2 91
e 2 101
e 2 102
e 2 103
e 2 104
e 2 109
e 2 133
e 2 163
e 2 182
e 2 191
e 2 192
e 2 198
e 3 5
e 3 6
e 3 16
e 3 29
e 3 52
e 3 61
e 3 63
e 3 64
e 4 5
e 4 6
e 4 7
e 4 8
e 4 11
e 4 14
e 4 17
e 4 21
e 4 22
e 4 23
e 4 31
e 4 49
e 4 53
e 4 60
e 4 65
e 4 66
e 4 76
e 4 78
e 4 86
e 4 95
e 4 101
e 4 107
e 4 109
e 4 115
e 4 128
e 4 131
e 4 134
e 4 140
e 4 169
e 4 181
e 4 182
e 4 183
e 5 6
e 5 7
e 5 8
e 5 9
e 5 10
e 5 11
e 5 13
e 5 14
e 5 16
e 5 18
e 5 22
e 5 24
e 5 25
e 5 26
e 5 45
e 5 52
e 5 58
e 5 60
e 5 83
e 5 89
e 5 93
e 5 102
e 5 106
e 5 107
e 5 110
e 5 111
e 5 116
e 5 120
e 5 144
e 5 157
e 5 158
e 5 167
e 5 176
e 5 177
e 6 7
e 6 12
e 6 25
e 6 32
e 6 34
e 6 36
e 6 40
e 6 42
e 6 65
e 6 71
e 6 73
e 6 89
e 6 97
e 6 107
e 6 150
e 6 158
e 6 180
e 6 189
e 7 9
e 7 10
e 7 14
e 7 15
e 7 17
e 7 18
e 7 31
e 7 35
e 7 43
e 7 48
e 7 54
e 7 79
e 7 95
e 7 97
e 7 103
e 7 112
e 8 9
e 8 11
e 8 12
e 8 15
e 8 17
e 8 18
e 8 33
e 8 39
e 8 41
e 8 47
e 8 68
e 8 87
e 8 90
e 8 100
e 8 113
e 8 117
e 8 119
e 8 131
e 8 134
e 8 148
e 8 149
e 8 155
e 8 183
e 8 185
e 8 196
e 9 11
e 9 13
e 9 16
e 9 20
e 9 24
e 9 28
e 9 43
e 9 59
e 9 61
e 9 96
e 9 106
e 9 143
e 9 170
e 9 177
e 10 14
e 10 23
e 10 40
e 10 45
e 10 54
e 10 77
e 10 83
e 10 87
e 10 91
e 10 92
e 10 109
e 10 127
e 10 153
e 10 156
e 10 163
e 11 12
e 11 17
e 11 21
e 11 23
e 11 27
e 11 40
e 11 46
e 11 63
e 11 70
e 11 75
e 11 93
e 11 99
e 11 103
e 11 124
e 11 137
e 11 143
e 11 148
e 11 152
e 11 159
e 11 175
e 12 15
e 12 19
e 12 20
e 12 21
e 12 22
e 12 26
e 12 27
e 12 31
e 12 37
e 12 43
e 12 44
e 12 52
e 12 56
e 12 62
e 12 64
e 12 77
e 12 105
e 12 119
e 12 122
e 12 131
e 12 146
e 12 150
e 12 169
e 12 184
e 12 188
e 12 189
e 12 197
e 13 29
e 13 33
e 13 37
e 13 48
e 13 53
e 13 54
e 13 58
e 13 83
e 13 93
e 13 108
e 13 124
e 13 136
e 13 156
e 13 163
e 13 187
e 13 198
e 14 19
e 14 24
e 14 26
e 14 73
e 14 76
e 14 81
e 14 82
e 14 97
e 14 108
e 14 121
e 14 132
e 14 161
e 14 171
e 15 19
e 15 20
e 15 25
e 15 35
e 15 39
e 15 42
e 15 46
e 15 50
e 15 69
e 15 87
e 15 91
e 15 95
e 15 105
e 15 110
e 15 123
e 15 136
e 15 176
e 15 190
e 15 191
e 15 199
e 16 23
e 16 30
e 16 36
e 16 41
e 16 62
e 16 93
e 16 135
e 16 138
e 16 163
e 17 20
e 17 21
e 17 27
e 17 30
e 17 32
e 17 34
e 17 35
e 17 38
e 17 42
e 17 45
e 17 47
e 17 53
e 17 61
e 17 67
e 17 73
e 17 106
e 17 113
e 17 115
e 17 124
e 17 125
e 17 134
e 17 157
e 17 170
e 17 184
e 17 186
e 18 77
e 18 94
e 18 104
e 18 149
e 19 28
e 19 29
e 19 63
e 19 75
e 19 157
e 20 22
e 20 29
e 20 33
e 20 46
e 20 54
e 20 62
e 20 86
e 20 98
e 20 120
e 20 149
e 20 178
e 20 188
e 21 30
e 21 87
e 21 94
e 21 96
e 21 126
e 21 130
e 21 142
e 21 165
e 21 197
e 21 200
e 22 37
e 22 71
e 22 72
e 22 88
e 22 117
e 22 151
e 22 160
e 22 187
e 23 24
e 23 27
e 23 30
e 23 36
e 23 37
e 23 59
e 23 67
e 23 80
e 23 92
e 23 108
e 23 120
e 23 144
e 23 159
e 24 25
e 24 36
e 24 42
e 24 44
e 24 57
e 24 64
e 24 75
e 24 84
e 24 88
e 24 96
e 24 99
e 24 114
e 24 140
e 24 169
e 24 173
e 24 174
e 25 28
e 25 32
e 25 44
e 25 46
e 25 70
e 25 80
e 25 81
e 25 85
e 25 100
e 25 101
e 25 112
e 25 125
e 25 144
e 25 160
e 25 195
e 26 47
e 26 51
e 26 60
e 26 71
e 26 76
e 26 98
e 26 146
e 26 164
e 26 181
e 27 107
e 28 34
e 28 112
e 28 123
e 28 126
e 28 143
e 28 153
e 28 196
e 29 32
e 29 33
e 29 38
e 29 48
e 29 49
e 29 50
e 29 57
e 29 74
e 29 82
e 29 88
e 29 103
e 29 118
e 29 128
e 29 129
e 29 142
e 29 150
e 29 155
e 29 161
e 29 173
e 30 79
e 30 83
e 30 132
e 30 133
e 30 175
e 31 44
e 31 51
e 31 60
e 31 67
e 31 68
e 31 80
e 31 81
e 31 113
e 31 127
e 31 191
e 32 38
e 32 65
e 32 66
e 32 78
e 32 84
e 32 138
e 32 154
e 32 158
e 32 159
e 32 164
e 32 166
e 32 181
e 32 188
e 32 195
e 33 34
e 33 40
e 33 52
e 33 57
e 33 68
e 33 73
e 33 92
e 33 108
e 33 140
e 34 58
e 34 102
e 34 184
e 35 39
e 35 41
e 35 43
e 35 48
e 35 53
e 35 66
e 35 131
e 35 136
e 35 139
e 35 167
e 35 182
e 35 194
e 36 51
e 36 55
e 36 63
e 36 72
e 36 78
e 36 110
e 36 127
e 36 137
e 36 140
e 36 141
e 36 151
e 36 171
e 37 38
e 37 57
e 37 84
e 37 128
e 37 142
e 37 162
e 37 166
e 37 179
e 38 45
e 38 56
e 38 69
e 38 99
e 38 167
e 39 61
e 39 70
e 39 72
e 39 94
e 39 129
e 39 130
e 40 47
e 40 55
e 40 75
e 40 79
e 40 85
e 40 142
e 40 160
e 40 162
e 40 169
e 40 182
e 40 183
e 41 56
e 41 66
e 41 111
e 41 174
e 42 72
e 42 74
e 42 101
e 42 106
e 42 114
e 42 150
e 42 158
e 42 165
e 42 175
e 42 195
e 42 200
e 43 90
e 44 56
e 44 77
e 44 137
e 45 51
e 45 58
e 45 89
e 45 165
e 46 49
e 46 55
e 46 152
e 46 168
e 47 68
e 47 69
e 47 70
e 47 91
e 47 130
e 47 179
e 48 76
e 48 115
e 48 119
e 49 50
e 49 121
e 49 186
e 49 196
e 50 117
e 50 170
e 51 55
e 51 59
e 51 74
e 51 90
e 51 96
e 51 156
e 52 94
e 52 181
e 52 185
e 53 59
e 53 62
e 53 64
e 53 82
e 53 98
e 53 113
e 53 141
e 53 198
e 53 199
e 55 84
e 55 92
e 55 130
e 56 65
e 56 98
e 56 111
e 56 166
e 56 175
e 57 195
e 58 151
e 58 156
e 58 161
e 58 190
e 59 89
e 59 120
e 60 90
e 60 104
e 61 69
e 61 123
e 61 144
e 61 199
e 62 148
e 62 168
e 63 114
e 63 152
e 63 172
e 63 176
e 63 185
e 63 194
e 64 82
e 64 100
e 64 189
e 65 86
e 65 95
e 65 129
e 65 191
e 67 78
e 67 115
e 67 126
e 67 135
e 67 151
e 68 74
e 68 99
e 68 139
e 68 148
e 68 193
e 69 180
e 69 197
e 70 85
e 70 118
e 70 177
e 70 179
e 71 79
e 71 80
e 71 165
e 72 145
e 72 194
e 74 102
e 74 139
e 74 146
e 74 190
e 75 136
e 75 138
e 75 145
e 75 147
e 75 170
e 75 192
e 75 200
e 76 112
e 76 129
e 76 147
e 77 118
e 79 135
e 79 178
e 79 200
e 80 110
e 81 125
e 82 88
e 82 133
e 83 100
e 83 122
e 83 143
e 84 111
e 85 121
e 85 152
e 86 104
e 86 105
e 86 199
e 87 105
e 88 147
e 89 123
e 89 197
e 90 147
e 91 97
e 93 114
e 93 121
e 94 154
e 94 164
e 94 171
e 95 122
e 97 193
e 97 194
e 98 116
e 98 125
e 98 138
e 98 172
e 98 179
e 98 184
e 99 117
e 99 157
e 99 186
e 100 155
e 101 109
e 102 154
e 103 155
e 103 161
e 105 133
e 106 137
e 108 122
e 108 134
e 110 116
e 112 116
e 112 141
e 112 162
e 113 162
e 113 193
e 113 198
e 114 141
e 116 183
e 117 124
e 117 126
e 117 127
e 117 167
e 118 132
e 119 146
e 120 132
e 120 135
e 121 180
e 123 153
e 124 172
e 126 128
e 126 174
e 127 168
e 128 145
e 128 166
e 130 139
e 133 145
e 133 178
e 134 177
e 138 189
e 139 188
e 141 186
e 142 173
e 142 187
e 143 168
e 144 180
e 145 153
e 147 187
e 147 190
e 148 149
e 148 173
e 149 154
e 149 196
e 151 160
e 152 176
e 154 159
e 154 192
e 155 174
e 160 164
e 161 185
e 162 178
e 170 192
e 190 193
